[2026-03-24T00:33:44.136Z] Pipeline "set_set_set_s005_g005" → 2026_03_24_00_33_43_set_set_set_s005_g005_max.sol
Set parameter WLSAccessID
Set parameter WLSSecret
Set parameter LicenseID to value 2792458
Set parameter LogFile to value "gurobi.log"
Using license file /root/gurobi.lic
Academic license 2792458 - for non-commercial use only - registered to an___@studenti.unipg.it

Gurobi Optimizer version 13.0.1 build v13.0.1rc0 (linux64 - "Ubuntu 24.04.4 LTS")
Copyright (c) 2026, Gurobi Optimization, LLC

Warning: Duplicate section found (read 'binary') - Is a variable name equal to an LP file format keyword?
Warning: Duplicate section found (read 'binary') - Is a variable name equal to an LP file format keyword?
Warning: Duplicate section found (read 'binary') - Is a variable name equal to an LP file format keyword?
Warning: Duplicate section found (read 'binary') - Is a variable name equal to an LP file format keyword?
Warning: Duplicate section found (read 'binary') - Is a variable name equal to an LP file format keyword?
Warning: Duplicate section found (read 'binary') - Is a variable name equal to an LP file format keyword?
Warning: Duplicate section found (read 'binary') - Is a variable name equal to an LP file format keyword?
Warning: Duplicate section found (read 'binary') - Is a variable name equal to an LP file format keyword?
Warning: Duplicate section found (read 'binary') - Is a variable name equal to an LP file format keyword?
Warning: Duplicate section found (read 'binary') - Is a variable name equal to an LP file format keyword?
Warning: Further warnings of this type will be omitted.
Read LP format model from file /root/bgw/data/uploads/2026_03_24_00_33_43_set_set_set_s005_g005_max.lp
Reading time = 0.00 seconds
: 498 rows, 102 columns, 1381 nonzeros

Using Gurobi shared library /opt/gurobi1301/linux64/lib/libgurobi.so.13.0.1

CPU model: AMD EPYC-Genoa Processor, instruction set [SSE2|AVX|AVX2|AVX512]
Thread count: 16 physical cores, 16 logical processors, using up to 16 threads

Academic license 2792458 - for non-commercial use only - registered to an___@studenti.unipg.it
Optimize a model with 498 rows, 102 columns and 1381 nonzeros (Max)
Model fingerprint: 0x81dfa859
Model has 20 linear objective coefficients
Variable types: 30 continuous, 72 integer (72 binary)
Coefficient statistics:
  Matrix range     [1e+00, 1e+01]
  Objective range  [1e+00, 1e+00]
  Bounds range     [1e+00, 1e+00]
  RHS range        [1e+00, 1e+01]

Found heuristic solution: objective 20.0000000
Presolve removed 226 rows and 38 columns
Presolve time: 0.00s
Presolved: 272 rows, 64 columns, 858 nonzeros
Variable types: 0 continuous, 64 integer (58 binary)
Found heuristic solution: objective 37.0000000

Root relaxation: objective 1.050000e+02, 38 iterations, 0.00 seconds (0.00 work units)

    Nodes    |    Current Node    |     Objective Bounds      |     Work
 Expl Unexpl |  Obj  Depth IntInf | Incumbent    BestBd   Gap | It/Node Time

     0     0  105.00000    0   17   37.00000  105.00000   184%     -    0s
H    0     0                      43.0000000  105.00000   144%     -    0s
H    0     0                      46.0000000  105.00000   128%     -    0s
H    0     0                      53.0000000  105.00000  98.1%     -    0s
     0     0  105.00000    0   19   53.00000  105.00000  98.1%     -    0s
H    0     0                      55.0000000  105.00000  90.9%     -    0s
     0     0  103.87500    0   17   55.00000  103.87500  88.9%     -    0s
     0     0  103.87500    0   14   55.00000  103.87500  88.9%     -    0s
     0     0  102.00000    0   19   55.00000  102.00000  85.5%     -    0s
     0     0  102.00000    0   12   55.00000  102.00000  85.5%     -    0s
     0     0  102.00000    0   12   55.00000  102.00000  85.5%     -    0s
     0     0  102.00000    0   20   55.00000  102.00000  85.5%     -    0s
     0     0  102.00000    0   14   55.00000  102.00000  85.5%     -    0s
     0     0  100.87500    0   19   55.00000  100.87500  83.4%     -    0s
     0     0  100.87500    0   14   55.00000  100.87500  83.4%     -    0s
     0     0   99.00000    0   17   55.00000   99.00000  80.0%     -    0s
     0     0   99.00000    0   14   55.00000   99.00000  80.0%     -    0s
     0     0   97.25000    0   20   55.00000   97.25000  76.8%     -    0s
     0     0   97.25000    0   17   55.00000   97.25000  76.8%     -    0s
     0     0   95.00000    0   20   55.00000   95.00000  72.7%     -    0s
     0     0   95.00000    0   14   55.00000   95.00000  72.7%     -    0s
     0     0   94.25000    0   14   55.00000   94.25000  71.4%     -    0s
     0     0   94.25000    0   14   55.00000   94.25000  71.4%     -    0s
     0     2   94.25000    0   14   55.00000   94.25000  71.4%     -    0s

Cutting planes:
  Gomory: 1
  Cover: 19
  Inf proof: 18
  Zero half: 4

Explored 3637 nodes (39132 simplex iterations) in 0.24 seconds (0.18 work units)
Thread count was 16 (of 16 available processors)

Solution count 6: 55 53 46 ... 20

Optimal solution found (tolerance 1.00e-04)
Best objective 5.500000000000e+01, best bound 5.500000000000e+01, gap 0.0000%

Wrote result file '/root/bgw/data/results/2026_03_24_00_33_43_set_set_set_s005_g005_max.sol'

